c Nemesis formula in 6CNF in accordance with DIMACS CNF format:
c    Filename: MCNC/c2670/c2670.tdl
c    Formula number 414
c    4849 variables (range: 2 - 4850)
c    2940 clauses
c
c p cnf 4850 2940
p cnf 1207 2940
895	0
1207	0
895	0
-896	0
894	0
874	-875	0
-874	875	0
894	896	0
-894	-896	0
-1200	-877	0
-1200	-878	0
-1200	-879	0
-1200	-881	0
874	894	0
-874	-894	0
1200	-875	0
-1200	875	0
1200	-896	0
-1200	896	0
875	-896	0
-875	896	0
113	116	0
-117	-1202	0
115	-1202	0
117	-1203	0
-115	-1203	0
-1203	1201	0
-1202	1201	0
1075	115	0
-1075	-115	0
-1076	116	0
1077	117	0
-1077	-117	0
1079	1075	0
-1079	-1075	0
-1080	1076	0
1081	1077	0
-1081	-1077	0
788	-1079	0
-788	1079	0
788	-1082	0
-788	1082	0
789	-1080	0
789	-1083	0
790	-1081	0
-790	1081	0
790	-1084	0
-790	1084	0
-681	-788	0
-791	-788	0
-792	-788	0
-795	-788	0
-793	789	0
-793	-795	0
-793	-791	0
-793	-681	0
-681	-790	0
-791	-790	0
-794	-790	0
-795	-790	0
-689	-1186	0
797	-1186	0
689	-1187	0
-797	-1187	0
-1187	795	0
-1186	795	0
48	-796	0
-48	796	0
48	-797	0
-48	797	0
48	-1142	0
-48	1142	0
48	-1158	0
-48	1158	0
448	-692	0
-448	692	0
448	-693	0
-448	693	0
448	-899	0
-448	899	0
449	448	0
442	448	0
445	448	0
450	448	0
453	450	0
110	450	0
454	450	0
90	-178	0
-90	178	0
90	-179	0
-90	179	0
90	-184	0
-90	184	0
90	-186	0
-90	186	0
90	-192	0
-90	192	0
90	-199	0
-90	199	0
90	-202	0
-90	202	0
90	-207	0
-90	207	0
90	-311	0
-90	311	0
90	-322	0
-90	322	0
90	-444	0
-90	444	0
90	-454	0
-90	454	0
90	-459	0
-90	459	0
90	-461	0
-90	461	0
90	-465	0
-90	465	0
90	-544	0
-90	544	0
90	-548	0
-90	548	0
90	-552	0
-90	552	0
90	-571	0
-90	571	0
90	-575	0
-90	575	0
90	-675	0
-90	675	0
175	-176	0
-175	176	0
175	-177	0
-175	177	0
175	-181	0
-175	181	0
175	-183	0
-175	183	0
175	-196	0
-175	196	0
175	-198	0
-175	198	0
175	-314	0
-175	314	0
175	-317	0
-175	317	0
175	-321	0
-175	321	0
175	-324	0
-175	324	0
175	-451	0
-175	451	0
175	-453	0
-175	453	0
175	-456	0
-175	456	0
175	-458	0
-175	458	0
175	-572	0
-175	572	0
175	-574	0
-175	574	0
175	-674	0
-175	674	0
175	-677	0
-175	677	0
576	175	0
-576	-175	0
42	-187	0
-42	187	0
42	-188	0
-42	188	0
42	-191	0
-42	191	0
42	-193	0
-42	193	0
42	-201	0
-42	201	0
42	-203	0
-42	203	0
42	-206	0
-42	206	0
42	-208	0
-42	208	0
42	-310	0
-42	310	0
42	-312	0
-42	312	0
42	-328	0
-42	328	0
42	-443	0
-42	443	0
42	-446	0
-42	446	0
42	-460	0
-42	460	0
42	-462	0
-42	462	0
42	-464	0
-42	464	0
42	-545	0
-42	545	0
42	-547	0
-42	547	0
42	-549	0
-42	549	0
42	-551	0
-42	551	0
42	-567	0
-42	567	0
42	-570	0
-42	570	0
42	-576	0
-42	576	0
446	445	0
28	445	0
447	445	0
180	-189	0
-180	189	0
180	-190	0
-180	190	0
180	-194	0
-180	194	0
180	-197	0
-180	197	0
180	-204	0
-180	204	0
180	-209	0
-180	209	0
180	-313	0
-180	313	0
180	-315	0
-180	315	0
180	-318	0
-180	318	0
180	-325	0
-180	325	0
180	-329	0
-180	329	0
180	-447	0
-180	447	0
180	-452	0
-180	452	0
180	-457	0
-180	457	0
180	-463	0
-180	463	0
180	-546	0
-180	546	0
180	-550	0
-180	550	0
180	-568	0
-180	568	0
180	-573	0
-180	573	0
180	-678	0
-180	678	0
552	180	0
-552	-180	0
443	442	0
79	442	0
444	442	0
451	449	0
109	449	0
452	449	0
77	-561	0
-77	561	0
77	-562	0
-77	562	0
77	-660	0
-77	660	0
77	-665	0
-77	665	0
77	-671	0
-77	671	0
77	-683	0
-77	683	0
77	-687	0
-77	687	0
77	-691	0
-77	691	0
77	-696	0
-77	696	0
555	-559	0
-555	559	0
555	-560	0
-555	560	0
555	-664	0
-555	664	0
555	-670	0
-555	670	0
555	-682	0
-555	682	0
555	-686	0
-555	686	0
555	-690	0
-555	690	0
555	-695	0
-555	695	0
660	555	0
-660	-555	0
773	792	0
-773	-792	0
-774	793	0
775	794	0
-775	-794	0
-776	-773	0
-777	-773	0
-778	774	0
-778	-776	0
-776	-775	0
-779	-775	0
1060	777	0
-1061	778	0
-1058	-1067	0
-1068	-1057	0
-1065	-1070	0
-1071	-1064	0
1062	779	0
-894	-1060	0
-1152	1143	0
-1144	1151	0
-1149	1146	0
-1147	1148	0
-1152	-894	0
-1144	-894	0
-1149	-894	0
-1147	-894	0
-896	-1062	0
-694	-1176	0
1135	-1176	0
694	-1177	0
-1135	-1177	0
-1177	894	0
-1176	894	0
23	-1135	0
-23	1135	0
23	-1136	0
-23	1136	0
23	-1139	0
-23	1139	0
23	-1159	0
-23	1159	0
666	-697	0
-666	697	0
666	-698	0
-666	698	0
666	-801	0
-666	801	0
666	-898	0
-666	898	0
676	666	0
205	666	0
673	666	0
674	673	0
61	673	0
675	673	0
677	676	0
37	676	0
678	676	0
669	-1150	0
-669	1150	0
669	-1151	0
-669	1151	0
557	-564	0
-557	564	0
557	-565	0
-557	565	0
557	-672	0
-557	672	0
557	-787	0
-557	787	0
455	557	0
569	557	0
566	557	0
567	566	0
105	566	0
568	566	0
570	569	0
11	569	0
571	569	0
1145	1143	0
-1145	-1143	0
67	-1039	0
-67	1039	0
67	-1040	0
-67	1040	0
67	-1141	0
-67	1141	0
67	-1145	0
-67	1145	0
67	-1148	0
-67	1148	0
67	-1160	0
-67	1160	0
1150	1146	0
-1150	-1146	0
1073	1057	0
-1073	-1057	0
558	-1070	0
-558	1070	0
558	-1073	0
-558	1073	0
273	-405	0
-273	405	0
273	-406	0
-273	406	0
273	-542	0
-273	542	0
273	-563	0
-273	563	0
308	273	0
309	273	0
174	273	0
176	174	0
18	174	0
178	174	0
314	308	0
35	308	0
315	308	0
3	-414	0
-3	414	0
3	-415	0
-3	415	0
3	-1002	0
-3	1002	0
3	-1056	0
-3	1056	0
3	-1067	0
-3	1067	0
3	-1155	0
-3	1155	0
1050	-1063	0
-1050	1063	0
1050	-1064	0
-1050	1064	0
1056	1050	0
-1056	-1050	0
782	776	0
64	-785	0
-64	785	0
64	-786	0
-64	786	0
64	-974	0
-64	974	0
64	-980	0
-64	980	0
64	-1157	0
-64	1157	0
330	-420	0
-330	420	0
330	-421	0
-330	421	0
330	-543	0
-330	543	0
330	-688	0
-330	688	0
195	330	0
331	330	0
327	330	0
328	327	0
107	327	0
329	327	0
464	331	0
81	331	0
465	331	0
783	780	0
-783	-780	0
663	-783	0
-663	783	0
663	-784	0
-663	784	0
319	-667	0
-319	667	0
319	-668	0
-319	668	0
316	319	0
185	319	0
182	319	0
183	182	0
65	182	0
184	182	0
317	316	0
73	316	0
318	316	0
47	-1137	0
-47	1137	0
47	-1138	0
-47	1138	0
47	-1140	0
-47	1140	0
47	-1161	0
-47	1161	0
781	-1026	0
-781	1026	0
781	-1027	0
-781	1027	0
781	-1033	0
-781	1033	0
1140	781	0
-1140	-781	0
809	791	0
-810	-809	0
-812	-809	0
-813	-809	0
-814	-809	0
-595	-1174	0
900	-1174	0
595	-1175	0
-900	-1175	0
-1175	814	0
-1174	814	0
49	-754	0
-49	754	0
49	-755	0
-49	755	0
49	-862	0
-49	862	0
49	-900	0
-49	900	0
340	-661	0
-340	661	0
340	-662	0
-340	662	0
340	-772	0
-340	772	0
340	-861	0
-340	861	0
340	-971	0
-340	971	0
210	340	0
335	340	0
332	340	0
333	332	0
89	332	0
334	332	0
46	-215	0
-46	215	0
46	-216	0
-46	216	0
46	-220	0
-46	220	0
46	-226	0
-46	226	0
46	-234	0
-46	234	0
46	-237	0
-46	237	0
46	-242	0
-46	242	0
46	-334	0
-46	334	0
46	-343	0
-46	343	0
46	-346	0
-46	346	0
46	-355	0
-46	355	0
46	-360	0
-46	360	0
46	-365	0
-46	365	0
46	-368	0
-46	368	0
46	-466	0
-46	466	0
46	-469	0
-46	469	0
46	-483	0
-46	483	0
46	-582	0
-46	582	0
46	-584	0
-46	584	0
46	-588	0
-46	588	0
46	-592	0
-46	592	0
230	-232	0
-230	232	0
230	-233	0
-230	233	0
230	-333	0
-230	333	0
230	-336	0
-230	336	0
230	-342	0
-230	342	0
230	-345	0
-230	345	0
230	-348	0
-230	348	0
230	-362	0
-230	362	0
230	-364	0
-230	364	0
230	-367	0
-230	367	0
230	-468	0
-230	468	0
230	-471	0
-230	471	0
230	-474	0
-230	474	0
230	-482	0
-230	482	0
230	-485	0
-230	485	0
230	-493	0
-230	493	0
230	-578	0
-230	578	0
230	-581	0
-230	581	0
230	-583	0
-230	583	0
230	-585	0
-230	585	0
605	230	0
-605	-230	0
75	-213	0
-75	213	0
75	-214	0
-75	214	0
75	-217	0
-75	217	0
75	-219	0
-75	219	0
75	-221	0
-75	221	0
75	-225	0
-75	225	0
75	-227	0
-75	227	0
75	-236	0
-75	236	0
75	-238	0
-75	238	0
75	-241	0
-75	241	0
75	-243	0
-75	243	0
75	-339	0
-75	339	0
75	-354	0
-75	354	0
75	-356	0
-75	356	0
75	-359	0
-75	359	0
75	-479	0
-75	479	0
75	-489	0
-75	489	0
75	-587	0
-75	587	0
75	-589	0
-75	589	0
75	-591	0
-75	591	0
75	-605	0
-75	605	0
212	-222	0
-212	222	0
212	-223	0
-212	223	0
212	-228	0
-212	228	0
212	-231	0
-212	231	0
212	-239	0
-212	239	0
212	-244	0
-212	244	0
212	-337	0
-212	337	0
212	-338	0
-212	338	0
212	-349	0
-212	349	0
212	-357	0
-212	357	0
212	-363	0
-212	363	0
212	-472	0
-212	472	0
212	-475	0
-212	475	0
212	-480	0
-212	480	0
212	-486	0
-212	486	0
212	-490	0
-212	490	0
212	-494	0
-212	494	0
212	-579	0
-212	579	0
212	-586	0
-212	586	0
212	-590	0
-212	590	0
466	212	0
-466	-212	0
213	210	0
100	210	0
215	210	0
59	-598	0
-59	598	0
59	-599	0
-59	599	0
59	-600	0
-59	600	0
59	-603	0
-59	603	0
59	-608	0
-59	608	0
59	-701	0
-59	701	0
59	-706	0
-59	706	0
59	-709	0
-59	709	0
59	-713	0
-59	713	0
59	-716	0
-59	716	0
594	-596	0
-594	596	0
594	-597	0
-594	597	0
594	-602	0
-594	602	0
594	-607	0
-594	607	0
594	-700	0
-594	700	0
594	-705	0
-594	705	0
594	-708	0
-594	708	0
594	-712	0
-594	712	0
594	-715	0
-594	715	0
600	594	0
-600	-594	0
868	813	0
-990	-868	0
-699	-1168	0
1009	-1168	0
699	-1169	0
-1009	-1169	0
-1169	990	0
-1168	990	0
91	-1008	0
-91	1008	0
91	-1009	0
-91	1009	0
91	-1012	0
-91	1012	0
439	-540	0
-439	540	0
439	-541	0
-439	541	0
439	-702	0
-439	702	0
439	-768	0
-439	768	0
439	-770	0
-439	770	0
577	439	0
218	439	0
580	439	0
581	580	0
2	580	0
582	580	0
578	577	0
32	577	0
579	577	0
554	-992	0
-554	992	0
554	-993	0
-554	993	0
170	-436	0
-170	436	0
170	-437	0
-170	437	0
170	-553	0
-170	553	0
170	-556	0
-170	556	0
171	170	0
172	170	0
173	170	0
177	173	0
56	173	0
179	173	0
181	171	0
5	171	0
189	171	0
987	986	0
-987	-986	0
111	-394	0
-111	394	0
111	-395	0
-111	395	0
111	-987	0
-111	987	0
111	-991	0
-111	991	0
111	-1001	0
-111	1001	0
992	988	0
-992	-988	0
872	867	0
-872	-867	0
601	-871	0
-601	871	0
601	-872	0
-601	872	0
487	-537	0
-487	537	0
487	-538	0
-487	538	0
487	-604	0
-487	604	0
487	-771	0
-487	771	0
487	-799	0
-487	799	0
487	-860	0
-487	860	0
487	-897	0
-487	897	0
484	487	0
353	487	0
481	487	0
482	481	0
53	481	0
483	481	0
485	484	0
25	484	0
486	484	0
55	-863	0
-55	863	0
55	-864	0
-55	864	0
55	-870	0
-55	870	0
628	-632	0
-628	632	0
628	-633	0
-628	633	0
628	-869	0
-628	869	0
864	628	0
-864	-628	0
909	812	0
910	812	0
815	812	0
905	812	0
1029	905	0
908	905	0
711	-907	0
-711	907	0
711	-908	0
-711	908	0
350	-890	0
-350	890	0
350	-891	0
-350	891	0
350	-969	0
-350	969	0
350	-1007	0
-350	1007	0
350	-1093	0
-350	1093	0
350	-1096	0
-350	1096	0
350	-1117	0
-350	1117	0
347	350	0
235	350	0
341	350	0
342	341	0
22	341	0
343	341	0
348	347	0
103	347	0
349	347	0
906	-1029	0
-906	1029	0
906	-1030	0
-906	1030	0
906	-1035	0
-906	1035	0
1015	906	0
-1015	-906	0
1	-1014	0
-1	1014	0
1	-1015	0
-1	1015	0
1	-1078	0
-1	1078	0
50	-976	0
-50	976	0
50	-977	0
-50	977	0
50	-982	0
-50	982	0
50	-1016	0
-50	1016	0
491	-882	0
-491	882	0
491	-883	0
-491	883	0
491	-886	0
-491	886	0
491	-968	0
-491	968	0
491	-1086	0
-491	1086	0
491	-1088	0
-491	1088	0
491	-1092	0
-491	1092	0
491	-1101	0
-491	1101	0
491	-1109	0
-491	1109	0
491	-1122	0
-491	1122	0
491	-1132	0
-491	1132	0
361	491	0
358	491	0
488	491	0
489	488	0
39	488	0
490	488	0
359	358	0
26	358	0
360	358	0
-911	-910	0
-816	-910	0
-901	-910	0
-707	-1172	0
903	-1172	0
707	-1173	0
-903	-1173	0
-1173	901	0
-1172	901	0
92	-902	0
-92	902	0
92	-903	0
-92	903	0
92	-989	0
-92	989	0
351	-509	0
-351	509	0
351	-510	0
-351	510	0
351	-710	0
-351	710	0
351	-843	0
-351	843	0
351	-888	0
-351	888	0
351	-945	0
-351	945	0
351	-994	0
-351	994	0
351	-1000	0
-351	1000	0
352	351	0
224	351	0
344	351	0
345	344	0
62	344	0
346	344	0
474	352	0
43	352	0
475	352	0
-606	-1182	0
865	-1182	0
606	-1183	0
-865	-1183	0
-1183	816	0
-1182	816	0
80	-865	0
-80	865	0
80	-866	0
-80	866	0
80	-984	0
-80	984	0
80	-1044	0
-80	1044	0
495	-760	0
-495	760	0
495	-761	0
-495	761	0
495	-765	0
-495	765	0
495	-844	0
-495	844	0
495	-893	0
-495	893	0
495	-1010	0
-495	1010	0
495	-1013	0
-495	1013	0
492	495	0
240	495	0
366	495	0
367	366	0
19	366	0
368	366	0
493	492	0
83	492	0
494	492	0
-704	-1166	0
1018	-1166	0
704	-1167	0
-1018	-1167	0
-1167	911	0
-1166	911	0
98	-1017	0
-98	1017	0
98	-1018	0
-98	1018	0
98	-1053	0
-98	1053	0
98	-1055	0
-98	1055	0
473	-965	0
-473	965	0
473	-966	0
-473	966	0
473	-967	0
-473	967	0
473	-998	0
-473	998	0
473	-1085	0
-473	1085	0
473	-1090	0
-473	1090	0
473	-1153	0
-473	1153	0
470	473	0
211	473	0
467	473	0
468	467	0
104	467	0
469	467	0
471	470	0
44	470	0
472	470	0
904	909	0
1014	909	0
907	904	0
-907	-904	0
-593	-1184	0
811	-1184	0
593	-1185	0
-811	-1185	0
-1185	810	0
-1184	810	0
68	-529	0
-68	529	0
68	-530	0
-68	530	0
68	-811	0
-68	811	0
68	-1011	0
-68	1011	0
476	-649	0
-476	649	0
476	-650	0
-476	650	0
476	-657	0
-476	657	0
476	-767	0
-476	767	0
476	-769	0
-476	769	0
229	476	0
477	476	0
478	476	0
479	478	0
76	478	0
480	478	0
591	477	0
78	477	0
592	477	0
-808	-806	0
-884	-806	0
802	-884	0
-802	884	0
802	-885	0
-802	885	0
802	-889	0
-802	889	0
802	-995	0
-802	995	0
802	-997	0
-802	997	0
804	802	0
-804	-802	0
106	-804	0
-106	804	0
106	-805	0
-106	805	0
106	-887	0
-106	887	0
106	-892	0
-106	892	0
106	-996	0
-106	996	0
106	-999	0
-106	999	0
703	-807	0
-703	807	0
703	-808	0
-703	808	0
36	703	0
-36	-703	0
-807	-803	0
-805	-803	0
326	-654	0
-326	654	0
326	-655	0
-326	655	0
326	-656	0
-326	656	0
326	-684	0
-326	684	0
323	326	0
200	326	0
320	326	0
321	320	0
8	320	0
322	320	0
324	323	0
30	323	0
325	323	0
-114	-1205	0
112	-1205	0
114	-1206	0
-112	-1206	0
-1206	1204	0
-1205	1204	0
1082	112	0
-1082	-112	0
-1083	113	0
1084	114	0
-1084	-114	0
-1204	1207	0
-1201	1207	0
525	-880	0
-525	880	0
525	-881	0
-525	881	0
-520	-525	0
-526	-520	0
522	-526	0
-522	526	0
522	-527	0
-522	527	0
-737	-522	0
-752	-522	0
-733	-522	0
-637	-522	0
-640	-637	0
-638	-637	0
642	638	0
-642	-638	0
636	-641	0
-636	641	0
636	-642	0
-636	642	0
648	636	0
650	636	0
651	636	0
274	-389	0
-274	389	0
274	-390	0
-274	390	0
274	-399	0
-274	399	0
274	-401	0
-274	401	0
274	-410	0
-274	410	0
274	-434	0
-274	434	0
274	-438	0
-274	438	0
274	-441	0
-274	441	0
274	-534	0
-274	534	0
274	-536	0
-274	536	0
274	-627	0
-274	627	0
274	-629	0
-274	629	0
274	-634	0
-274	634	0
274	-651	0
-274	651	0
274	-653	0
-274	653	0
274	-762	0
-274	762	0
274	-850	0
-274	850	0
274	-854	0
-274	854	0
274	-958	0
-274	958	0
274	-964	0
-274	964	0
274	-972	0
-274	972	0
274	-975	0
-274	975	0
274	-981	0
-274	981	0
274	-1031	0
-274	1031	0
274	-1036	0
-274	1036	0
274	-1041	0
-274	1041	0
274	-1048	0
-274	1048	0
274	-1156	0
-274	1156	0
426	274	0
428	274	0
430	274	0
423	-429	0
-423	429	0
423	-430	0
-423	430	0
564	423	0
-564	-423	0
424	-427	0
-424	427	0
424	-428	0
-424	428	0
-102	-424	0
-800	-424	0
801	800	0
-801	-800	0
71	-425	0
-71	425	0
71	-426	0
-71	426	0
54	-532	0
-54	532	0
54	-533	0
-54	533	0
54	-648	0
-54	648	0
54	-758	0
-54	758	0
54	-851	0
-54	851	0
54	-856	0
-54	856	0
54	-970	0
-54	970	0
54	-1043	0
-54	1043	0
531	-639	0
-531	639	0
531	-640	0
-531	640	0
533	531	0
528	531	0
534	531	0
530	528	0
-530	-528	0
-831	-733	0
-735	-733	0
-731	-733	0
826	731	0
-826	-731	0
732	-826	0
-732	826	0
732	-827	0
-732	827	0
970	732	0
971	732	0
972	732	0
828	735	0
-828	-735	0
736	-828	0
-736	828	0
736	-829	0
-736	829	0
-753	-736	0
-755	-736	0
-756	-736	0
264	-383	0
-264	383	0
264	-384	0
-264	384	0
264	-392	0
-264	392	0
264	-396	0
-264	396	0
264	-404	0
-264	404	0
264	-412	0
-264	412	0
264	-416	0
-264	416	0
264	-419	0
-264	419	0
264	-504	0
-264	504	0
264	-514	0
-264	514	0
264	-518	0
-264	518	0
264	-539	0
-264	539	0
264	-619	0
-264	619	0
264	-623	0
-264	623	0
264	-647	0
-264	647	0
264	-756	0
-264	756	0
264	-766	0
-264	766	0
264	-846	0
-264	846	0
264	-859	0
-264	859	0
264	-957	0
-264	957	0
264	-961	0
-264	961	0
264	-978	0
-264	978	0
264	-983	0
-264	983	0
264	-985	0
-264	985	0
264	-1028	0
-264	1028	0
264	-1034	0
-264	1034	0
264	-1045	0
-264	1045	0
264	-1051	0
-264	1051	0
264	-1054	0
-264	1054	0
627	264	0
-627	-264	0
379	-512	0
-379	512	0
379	-513	0
-379	513	0
379	-517	0
-379	517	0
379	-626	0
-379	626	0
379	-631	0
-379	631	0
379	-644	0
-379	644	0
379	-646	0
-379	646	0
379	-753	0
-379	753	0
379	-764	0
-379	764	0
532	379	0
-532	-379	0
734	-831	0
-734	831	0
734	-832	0
-734	832	0
734	-838	0
-734	838	0
835	734	0
-835	-734	0
635	-835	0
-635	835	0
635	-836	0
-635	836	0
635	-952	0
-635	952	0
-947	-752	0
949	947	0
951	947	0
952	947	0
933	947	0
-936	-933	0
823	-935	0
-823	935	0
823	-936	0
-823	936	0
825	823	0
-825	-823	0
741	-824	0
-741	824	0
741	-825	0
-741	825	0
741	-834	0
-741	834	0
-827	-1180	0
829	-1180	0
827	-1181	0
-829	-1181	0
-1181	741	0
-1180	741	0
932	931	0
-932	-931	0
-941	-932	0
-939	-932	0
938	-939	0
-938	939	0
938	-940	0
-938	940	0
938	-1004	0
-938	1004	0
994	938	0
-994	-938	0
937	-941	0
-937	941	0
937	-942	0
-937	942	0
937	-944	0
-937	944	0
956	-962	0
-956	962	0
956	-963	0
-956	963	0
989	956	0
-989	-956	0
955	-959	0
-955	959	0
955	-960	0
-955	960	0
1136	955	0
-1136	-955	0
940	934	0
942	934	0
746	-950	0
-746	950	0
746	-951	0
-746	951	0
-750	-1188	0
749	-1188	0
750	-1189	0
-749	-1189	0
-1189	746	0
-1188	746	0
745	-748	0
-745	748	0
745	-749	0
-745	749	0
758	745	0
-984	-757	0
-985	-757	0
-1039	-652	0
-653	-652	0
747	-750	0
-747	750	0
747	-751	0
-747	751	0
-764	-747	0
765	763	0
766	763	0
761	759	0
762	759	0
946	-948	0
-946	948	0
946	-949	0
-946	949	0
954	946	0
-954	-946	0
837	-953	0
-837	953	0
837	-954	0
-837	954	0
-841	-1178	0
840	-1178	0
841	-1179	0
-840	-1179	0
-1179	837	0
-1178	837	0
624	-839	0
-624	839	0
624	-840	0
-624	840	0
-626	-624	0
632	625	0
629	625	0
622	620	0
623	620	0
618	-621	0
-618	621	0
618	-622	0
-618	622	0
796	618	0
-796	-618	0
643	-841	0
-643	841	0
643	-842	0
-643	842	0
-535	-643	0
-644	-643	0
1127	1025	0
1123	1025	0
1120	1025	0
1087	-1112	0
-1087	1112	0
1087	-1113	0
-1087	1113	0
1087	-1120	0
-1087	1120	0
1088	1087	0
-1088	-1087	0
973	-1123	0
-973	1123	0
973	-1124	0
-973	1124	0
973	-1131	0
-973	1131	0
1116	-1127	0
-1116	1127	0
1116	-1128	0
-1116	1128	0
-1117	-1164	0
1119	-1164	0
1117	-1165	0
-1119	-1165	0
-1165	1116	0
-1164	1116	0
1020	-1118	0
-1020	1118	0
1020	-1119	0
-1020	1119	0
1037	1024	0
-1037	-1024	0
-1125	-1037	0
-1129	-1037	0
1162	1129	0
1089	-1162	0
-1089	1162	0
1089	-1163	0
-1089	1163	0
1090	1089	0
-1090	-1089	0
-1053	-1052	0
-1054	-1052	0
-1155	-1154	0
-1156	-1154	0
1128	1125	0
1130	1126	0
-1130	-1126	0
1131	1130	0
1132	1130	0
-1122	-1121	0
-1124	-1121	0
1019	1021	0
1023	1021	0
1006	-1022	0
-1006	1022	0
1006	-1023	0
-1006	1023	0
1006	-1104	0
-1006	1104	0
1007	1006	0
-1007	-1006	0
1118	1019	0
-1118	-1019	0
738	737	0
739	737	0
740	737	0
824	740	0
742	740	0
743	740	0
744	740	0
751	744	0
-751	-744	0
-953	-743	0
-838	-743	0
748	742	0
-748	-742	0
950	739	0
943	739	0
830	739	0
948	739	0
-832	-830	0
-935	-830	0
-944	-943	0
-945	-943	0
834	738	0
839	738	0
836	738	0
833	738	0
842	833	0
-842	-833	0
248	521	0
718	521	0
720	521	0
118	-719	0
-118	719	0
118	-720	0
-118	720	0
126	118	0
-126	-118	0
119	-126	0
-119	126	0
119	-127	0
-119	127	0
119	-135	0
-119	135	0
-270	-1196	0
269	-1196	0
270	-1197	0
-269	-1197	0
-1197	119	0
-1196	119	0
265	-268	0
-265	268	0
265	-269	0
-265	269	0
398	265	0
408	265	0
399	265	0
397	-408	0
-397	408	0
397	-409	0
-397	409	0
785	397	0
-785	-397	0
272	-387	0
-272	387	0
272	-388	0
-272	388	0
272	-398	0
-272	398	0
272	-400	0
-272	400	0
272	-407	0
-272	407	0
272	-431	0
-272	431	0
272	-435	0
-272	435	0
272	-440	0
-272	440	0
385	272	0
-385	-272	0
262	-381	0
-262	381	0
262	-382	0
-262	382	0
262	-385	0
-262	385	0
262	-391	0
-262	391	0
262	-393	0
-262	393	0
262	-403	0
-262	403	0
262	-411	0
-262	411	0
262	-413	0
-262	413	0
262	-418	0
-262	418	0
425	262	0
422	262	0
429	262	0
427	422	0
-427	-422	0
267	-270	0
-267	270	0
267	-271	0
-267	271	0
400	267	0
420	267	0
401	267	0
120	-717	0
-120	717	0
120	-718	0
-120	718	0
122	-130	0
-122	130	0
122	-131	0
-122	131	0
-393	-122	0
-395	-122	0
-396	-122	0
121	-128	0
-121	128	0
121	-129	0
-121	129	0
-382	-121	0
-380	-121	0
-384	-121	0
436	380	0
-436	-380	0
-251	-248	0
124	-250	0
-124	250	0
124	-251	0
-124	251	0
124	-255	0
-124	255	0
-138	-1198	0
140	-1198	0
138	-1199	0
-140	-1199	0
-1199	124	0
-1198	124	0
136	-139	0
-136	139	0
136	-140	0
-136	140	0
-413	-136	0
-415	-136	0
-416	-136	0
134	-137	0
-134	137	0
134	-138	0
-134	138	0
-403	-134	0
-402	-134	0
-404	-134	0
406	402	0
-406	-402	0
919	245	0
256	245	0
247	-256	0
-247	256	0
247	-257	0
-247	257	0
247	-918	0
-247	918	0
-381	-247	0
-1133	-247	0
-383	-247	0
263	-1133	0
-263	1133	0
263	-1134	0
-263	1134	0
541	263	0
-541	-263	0
246	-919	0
-246	919	0
246	-920	0
-246	920	0
258	246	0
-258	-246	0
252	-258	0
-252	258	0
252	-259	0
-252	259	0
388	252	0
432	252	0
390	252	0
386	-432	0
-386	432	0
386	-433	0
-386	433	0
1008	386	0
-1008	-386	0
725	249	0
-725	-249	0
-918	-725	0
-920	-725	0
260	-523	0
-260	523	0
260	-524	0
-260	524	0
-261	-260	0
-253	-260	0
-132	-260	0
-123	-260	0
-250	-123	0
-125	-123	0
-127	-123	0
-129	-123	0
131	125	0
-131	-125	0
-135	-132	0
-133	-132	0
-137	-132	0
139	133	0
-139	-133	0
-255	-253	0
-257	-253	0
-254	-253	0
-259	-253	0
717	254	0
719	254	0
-268	-261	0
-266	-261	0
271	266	0
-271	-266	0
523	519	0
-523	-519	0
873	-878	0
-873	878	0
873	-879	0
-873	879	0
-876	-873	0
-880	-873	0
153	-876	0
-153	876	0
153	-877	0
-153	877	0
153	-1074	0
-153	1074	0
-150	-153	0
-154	-150	0
152	-154	0
-152	154	0
152	-155	0
-152	155	0
-614	-152	0
-817	-152	0
-609	-152	0
-818	-152	0
-819	-818	0
-925	-818	0
515	-925	0
-515	925	0
515	-926	0
-515	926	0
-517	-515	0
-658	-515	0
-518	-515	0
516	-658	0
-516	658	0
516	-659	0
-516	659	0
657	516	0
-657	-516	0
927	819	0
-927	-819	0
511	-927	0
-511	927	0
511	-928	0
-511	928	0
-513	-511	0
-529	-511	0
-514	-511	0
-613	-609	0
-610	-609	0
-729	-609	0
611	-729	0
-611	729	0
611	-730	0
-611	730	0
-646	-611	0
-679	-611	0
-647	-611	0
645	-679	0
-645	679	0
645	-680	0
-645	680	0
662	645	0
-662	-645	0
917	610	0
-917	-610	0
503	-916	0
-503	916	0
503	-917	0
-503	917	0
-512	-503	0
-754	-503	0
-504	-503	0
502	-612	0
-502	612	0
502	-613	0
-502	613	0
502	-921	0
-502	921	0
502	-924	0
-502	924	0
502	-1091	0
-502	1091	0
-926	-1170	0
928	-1170	0
926	-1171	0
-928	-1171	0
-1171	502	0
-1170	502	0
-923	-817	0
-922	-817	0
-496	-817	0
-924	-817	0
821	496	0
500	496	0
498	496	0
-509	-1190	0
507	-1190	0
509	-1191	0
-507	-1191	0
-1191	498	0
-1190	498	0
505	-507	0
-505	507	0
505	-508	0
-505	508	0
370	-499	0
-370	499	0
370	-500	0
-370	500	0
370	-724	0
-370	724	0
370	-913	0
-370	913	0
497	-821	0
-497	821	0
497	-822	0
-497	822	0
722	-929	0
-722	929	0
722	-930	0
-722	930	0
1043	722	0
-1044	-1042	0
-1045	-1042	0
-1040	-1038	0
-1041	-1038	0
721	-914	0
-721	914	0
721	-915	0
-721	915	0
856	721	0
-857	-852	0
-854	-852	0
853	-857	0
-853	857	0
853	-858	0
-853	858	0
853	-1005	0
-853	1005	0
1013	853	0
-1013	-853	0
-858	-855	0
-859	-855	0
-1099	-922	0
-1107	-1099	0
-1114	-1099	0
-1101	-1099	0
1100	-1114	0
-1100	1114	0
1100	-1115	0
-1100	1115	0
1111	1100	0
-1111	-1100	0
979	-1110	0
-979	1110	0
979	-1111	0
-979	1111	0
1095	-1107	0
-1095	1107	0
1095	-1108	0
-1095	1108	0
1032	-1097	0
-1032	1097	0
1032	-1098	0
-1032	1098	0
-1153	-1103	0
1047	1046	0
1048	1046	0
1055	1047	0
-1055	-1047	0
1063	1049	0
1051	1049	0
-1108	-1102	0
1110	1106	0
1109	1106	0
1113	1105	0
1115	1105	0
1097	1094	0
-1097	-1094	0
374	-727	0
-374	727	0
374	-728	0
-374	728	0
374	-923	0
-374	923	0
371	-377	0
-371	377	0
371	-378	0
-371	378	0
-631	-371	0
633	630	0
634	630	0
621	617	0
619	617	0
373	-375	0
-373	375	0
373	-376	0
-373	376	0
851	373	0
-849	-847	0
-850	-847	0
798	-848	0
-798	848	0
798	-849	0
-798	849	0
798	-1003	0
-798	1003	0
799	798	0
-799	-798	0
-848	-845	0
-846	-845	0
369	614	0
615	614	0
616	614	0
913	616	0
912	616	0
501	616	0
915	616	0
-727	-501	0
-612	-501	0
930	912	0
-930	-912	0
822	615	0
506	615	0
820	615	0
726	615	0
728	726	0
-728	-726	0
-921	-820	0
-723	-820	0
724	723	0
-724	-723	0
-508	-506	0
-510	-506	0
499	369	0
377	369	0
372	369	0
375	369	0
1091	372	0
-1091	-372	0
284	151	0
294	151	0
287	151	0
275	-286	0
-275	286	0
275	-287	0
-275	287	0
275	-293	0
-275	293	0
275	-296	0
-275	296	0
-281	-1194	0
283	-1194	0
281	-1195	0
-283	-1195	0
-1195	275	0
-1194	275	0
145	-282	0
-145	282	0
145	-283	0
-145	283	0
407	145	0
409	145	0
410	145	0
146	-280	0
-146	280	0
146	-281	0
-146	281	0
-418	-146	0
-417	-146	0
-419	-146	0
421	417	0
-421	-417	0
285	-294	0
-285	294	0
285	-295	0
-285	295	0
-290	-1192	0
291	-1192	0
290	-1193	0
-291	-1193	0
-1193	285	0
-1192	285	0
288	-291	0
-288	291	0
288	-292	0
-288	292	0
-391	-288	0
-394	-288	0
-392	-288	0
159	-289	0
-159	289	0
159	-290	0
-159	290	0
435	159	0
437	159	0
438	159	0
-299	-284	0
141	-167	0
-141	167	0
141	-168	0
-141	168	0
141	-299	0
-141	299	0
143	-276	0
-143	276	0
143	-277	0
-143	277	0
-411	-143	0
-414	-143	0
-412	-143	0
142	-278	0
-142	278	0
142	-279	0
-142	279	0
387	142	0
405	142	0
389	142	0
300	298	0
304	298	0
164	-303	0
-164	303	0
164	-304	0
-164	304	0
305	164	0
-305	-164	0
169	-305	0
-169	305	0
169	-306	0
-169	306	0
440	169	0
540	169	0
441	169	0
302	300	0
-302	-300	0
166	-301	0
-166	301	0
166	-302	0
-166	302	0
166	-307	0
-166	307	0
431	166	0
433	166	0
434	166	0
306	297	0
307	297	0
156	149	0
-156	-149	0
144	-156	0
-144	156	0
144	-157	0
-144	157	0
147	144	0
148	144	0
286	148	0
277	148	0
279	148	0
-163	-147	0
-160	-147	0
-167	-160	0
-161	-160	0
-162	-160	0
-158	-160	0
289	158	0
-289	-158	0
293	162	0
-293	-162	0
292	161	0
-292	-161	0
-168	-163	0
-303	-163	0
-165	-163	0
-301	-163	0
295	165	0
296	165	0
1202	117	-115	0
1203	-117	115	0
-1201	1203	1202	0
-116	115	117	0
-116	-115	-117	0
-1076	1075	1077	0
-1076	-1075	-1077	0
-789	1080	1083	0
-1083	1082	1084	0
-1083	-1082	-1084	0
-1080	1079	1081	0
-1080	-1079	-1081	0
-789	788	790	0
-789	-788	-790	0
1186	689	-797	0
1187	-689	797	0
-795	1187	1186	0
-690	-33	-689	0
-693	-691	-689	0
691	33	689	0
693	33	689	0
691	690	689	0
693	690	689	0
-793	792	794	0
-793	-792	-794	0
773	776	777	0
-774	773	775	0
-774	-773	-775	0
775	776	779	0
1064	1070	777	0
1057	1067	777	0
-1058	-1059	1062	0
-1058	-1057	1060	0
-1058	1060	1062	0
-1068	-1069	1062	0
-1068	-1067	1060	0
-1068	1060	1062	0
-1065	-1066	1062	0
-1065	-1064	1060	0
-1065	1060	1062	0
-1071	-1072	1062	0
-1071	-1070	1060	0
-1071	1060	1062	0
-1061	1057	1067	0
-1061	1064	1070	0
-1058	1064	1070	0
-1068	1064	1070	0
-1065	1057	1067	0
-1071	1057	1067	0
-778	777	779	0
-778	-777	-779	0
1064	1070	779	0
1057	1067	779	0
-1148	-1146	-1060	0
-1151	-1143	-1060	0
-895	-1151	-1143	0
-895	-1148	-1146	0
-1152	-1148	-1146	0
-1144	-1148	-1146	0
-1149	-1151	-1143	0
-1147	-1151	-1143	0
-1061	1060	1062	0
-1061	-1060	-1062	0
-1148	-1146	-1062	0
-1151	-1143	-1062	0
1176	694	-1135	0
1177	-694	1135	0
-894	1177	1176	0
-695	-101	-694	0
-698	-696	-694	0
696	101	694	0
698	101	694	0
696	695	694	0
698	695	694	0
208	206	205	0
93	206	205	0
209	206	205	0
208	66	205	0
93	66	205	0
209	66	205	0
208	207	205	0
93	207	205	0
209	207	205	0
-670	-29	-669	0
-672	-671	-669	0
671	29	669	0
672	29	669	0
671	670	669	0
672	670	669	0
458	456	455	0
82	456	455	0
459	456	455	0
458	74	455	0
82	74	455	0
459	74	455	0
458	457	455	0
82	457	455	0
459	457	455	0
-560	-34	-558	0
-563	-562	-558	0
562	34	558	0
563	34	558	0
562	560	558	0
563	560	558	0
312	310	309	0
52	310	309	0
313	310	309	0
312	86	309	0
52	86	309	0
313	86	309	0
312	311	309	0
52	311	309	0
313	311	309	0
1026	784	776	0
780	1137	776	0
786	685	782	0
-786	-685	782	0
-786	685	-782	0
786	-685	-782	0
-686	-85	-685	0
-688	-687	-685	0
687	85	685	0
688	85	685	0
687	686	685	0
688	686	685	0
198	196	195	0
14	196	195	0
199	196	195	0
198	16	195	0
14	16	195	0
199	16	195	0
198	197	195	0
14	197	195	0
199	197	195	0
-664	-40	-663	0
-667	-665	-663	0
665	40	663	0
667	40	663	0
665	664	663	0
667	664	663	0
188	187	185	0
13	187	185	0
190	187	185	0
188	99	185	0
13	99	185	0
190	99	185	0
188	186	185	0
13	186	185	0
190	186	185	0
806	803	791	0
-809	-803	-791	0
-809	-806	-791	0
1174	595	-900	0
1175	-595	900	0
-814	1175	1174	0
-597	-17	-595	0
-661	-599	-595	0
599	17	595	0
661	17	595	0
599	597	595	0
661	597	595	0
-339	-338	-335	0
338	336	335	0
339	336	335	0
338	38	335	0
339	38	335	0
338	337	335	0
339	337	335	0
869	871	813	0
867	870	813	0
-991	-988	-868	0
-993	-986	-868	0
1168	699	-1009	0
1169	-699	1009	0
-990	1169	1168	0
-700	-87	-699	0
-702	-701	-699	0
701	87	699	0
702	87	699	0
701	700	699	0
702	700	699	0
221	219	218	0
94	219	218	0
223	219	218	0
221	21	218	0
94	21	218	0
223	21	218	0
221	220	218	0
94	220	218	0
223	220	218	0
-559	-95	-554	0
-556	-561	-554	0
561	95	554	0
556	95	554	0
561	559	554	0
556	559	554	0
193	191	172	0
60	191	172	0
194	191	172	0
193	7	172	0
60	7	172	0
194	7	172	0
193	192	172	0
60	192	172	0
194	192	172	0
-602	-108	-601	0
-604	-603	-601	0
603	108	601	0
604	108	601	0
603	602	601	0
604	602	601	0
356	354	353	0
45	354	353	0
357	354	353	0
356	15	353	0
45	15	353	0
357	15	353	0
356	355	353	0
45	355	353	0
357	355	353	0
-905	-1029	-908	0
-712	-58	-711	0
-890	-713	-711	0
713	58	711	0
890	58	711	0
713	712	711	0
890	712	711	0
238	236	235	0
57	236	235	0
239	236	235	0
238	10	235	0
57	10	235	0
239	10	235	0
238	237	235	0
57	237	235	0
239	237	235	0
976	714	815	0
-976	-714	815	0
-976	714	-815	0
976	-714	-815	0
-715	-24	-714	0
-882	-716	-714	0
716	24	714	0
882	24	714	0
716	715	714	0
882	715	714	0
364	362	361	0
20	362	361	0
365	362	361	0
364	63	361	0
20	63	361	0
365	63	361	0
364	363	361	0
20	363	361	0
365	363	361	0
1172	707	-903	0
1173	-707	903	0
-901	1173	1172	0
-708	-31	-707	0
-710	-709	-707	0
709	31	707	0
710	31	707	0
709	708	707	0
710	708	707	0
227	225	224	0
51	225	224	0
228	225	224	0
227	12	224	0
51	12	224	0
228	12	224	0
227	226	224	0
51	226	224	0
228	226	224	0
1182	606	-865	0
1183	-606	865	0
-816	1183	1182	0
-607	-4	-606	0
-760	-608	-606	0
608	4	606	0
760	4	606	0
608	607	606	0
760	607	606	0
243	241	240	0
69	241	240	0
244	241	240	0
243	97	240	0
69	97	240	0
244	97	240	0
243	242	240	0
69	242	240	0
244	242	240	0
1166	704	-1018	0
1167	-704	1018	0
-911	1167	1166	0
-705	-9	-704	0
-965	-706	-704	0
706	9	704	0
965	9	704	0
706	705	704	0
965	705	704	0
217	214	211	0
6	214	211	0
222	214	211	0
217	27	211	0
6	27	211	0
222	27	211	0
217	216	211	0
6	216	211	0
222	216	211	0
-909	-904	-1014	0
1184	593	-811	0
1185	-593	811	0
-810	1185	1184	0
-596	-41	-593	0
-649	-598	-593	0
598	41	593	0
649	41	593	0
598	596	593	0
649	596	593	0
233	232	229	0
72	232	229	0
234	232	229	0
233	84	229	0
72	84	229	0
234	84	229	0
233	231	229	0
72	231	229	0
234	231	229	0
806	808	884	0
803	807	805	0
-682	-70	-681	0
-684	-683	-681	0
683	70	681	0
684	70	681	0
683	682	681	0
684	682	681	0
203	201	200	0
88	201	200	0
204	201	200	0
203	96	200	0
88	96	200	0
204	96	200	0
203	202	200	0
88	202	200	0
204	202	200	0
1205	114	-112	0
1206	-114	112	0
-1204	1206	1205	0
-113	112	114	0
-113	-112	-114	0
-1207	1204	1201	0
878	877	874	0
881	879	874	0
-879	-877	-874	0
-881	-877	-874	0
-879	-878	-874	0
-881	-878	-874	0
-519	-527	-525	0
520	527	525	0
520	519	525	0
-521	-524	-520	0
526	524	520	0
526	521	520	0
637	640	638	0
424	102	800	0
639	641	635	0
-639	-641	635	0
-639	641	-635	0
639	-641	-635	0
947	1021	752	0
947	1024	752	0
947	1025	752	0
-931	-934	-933	0
936	934	933	0
936	931	933	0
1180	827	-829	0
1181	-827	829	0
-741	1181	1180	0
932	941	939	0
-957	-959	-937	0
-958	-962	-937	0
962	959	937	0
958	959	937	0
962	957	937	0
958	957	937	0
-934	-940	-942	0
1188	750	-749	0
1189	-750	749	0
-746	1189	1188	0
757	652	745	0
-758	-652	-745	0
-758	-757	-745	0
757	984	985	0
652	1039	653	0
-763	-759	-747	0
764	759	747	0
764	763	747	0
-763	-765	-766	0
-759	-761	-762	0
1178	841	-840	0
1179	-841	840	0
-837	1179	1178	0
-625	-620	-624	0
626	620	624	0
626	625	624	0
-625	-632	-629	0
-620	-622	-623	0
643	535	644	0
-536	-537	-535	0
-539	-538	-535	0
538	537	535	0
539	537	535	0
538	536	535	0
539	536	535	0
975	974	973	0
978	977	973	0
-977	-974	-973	0
-978	-974	-973	0
-977	-975	-973	0
-978	-975	-973	0
1164	1117	-1119	0
1165	-1117	1119	0
-1116	1165	1164	0
-1028	-1027	-1020	0
-1031	-1030	-1020	0
1030	1027	1020	0
1031	1027	1020	0
1030	1028	1020	0
1031	1028	1020	0
1037	1125	1129	0
1052	1154	1129	0
-1162	-1154	-1129	0
-1162	-1052	-1129	0
1052	1053	1054	0
1154	1155	1156	0
1126	1121	1125	0
-1128	-1121	-1125	0
-1128	-1126	-1125	0
-1130	-1131	-1132	0
1121	1122	1124	0
-1021	-1019	-1023	0
743	953	838	0
830	832	935	0
943	944	945	0
1196	270	-269	0
1197	-270	269	0
-119	1197	1196	0
130	128	120	0
-130	-128	120	0
-130	128	-120	0
130	-128	-120	0
-245	-249	-248	0
251	249	248	0
251	245	248	0
1198	138	-140	0
1199	-138	140	0
-124	1199	1198	0
-245	-919	-256	0
725	918	920	0
-254	-717	-719	0
261	268	266	0
873	876	880	0
-157	-155	-153	0
150	155	153	0
150	157	153	0
-151	-149	-150	0
154	149	150	0
154	151	150	0
818	819	925	0
1170	926	-928	0
1171	-926	928	0
-502	1171	1170	0
1190	509	-507	0
1191	-509	507	0
-498	1191	1190	0
-961	-960	-505	0
-964	-963	-505	0
963	960	505	0
964	960	505	0
963	961	505	0
964	961	505	0
916	730	370	0
-916	-730	370	0
-916	730	-370	0
916	-730	-370	0
929	914	497	0
-929	-914	497	0
-929	914	-497	0
929	-914	-497	0
1042	1038	722	0
-1043	-1038	-722	0
-1043	-1042	-722	0
1042	1044	1045	0
1038	1040	1041	0
852	855	721	0
-856	-855	-721	0
-856	-852	-721	0
852	857	854	0
855	858	859	0
-1104	-1094	-922	0
-1103	-1102	-922	0
981	980	979	0
983	982	979	0
-982	-980	-979	0
-983	-980	-979	0
-982	-981	-979	0
-983	-981	-979	0
1098	1096	1095	0
-1098	-1096	1095	0
-1098	1096	-1095	0
1098	-1096	-1095	0
-1034	-1033	-1032	0
-1036	-1035	-1032	0
1035	1033	1032	0
1036	1033	1032	0
1035	1034	1032	0
1036	1034	1032	0
-1046	-1049	-1103	0
1153	1049	1103	0
1153	1046	1103	0
-1046	-1047	-1048	0
-1049	-1063	-1051	0
-1106	-1105	-1102	0
1108	1105	1102	0
1108	1106	1102	0
-1106	-1110	-1109	0
-1105	-1113	-1115	0
378	376	374	0
-378	-376	374	0
-378	376	-374	0
378	-376	-374	0
-630	-617	-371	0
631	617	371	0
631	630	371	0
-630	-633	-634	0
-617	-621	-619	0
847	845	373	0
-851	-845	-373	0
-851	-847	-373	0
847	849	850	0
845	848	846	0
501	727	612	0
820	921	723	0
506	508	510	0
1194	281	-283	0
1195	-281	283	0
-275	1195	1194	0
1192	290	-291	0
1193	-290	291	0
-285	1193	1192	0
-298	-297	-284	0
299	297	284	0
299	298	284	0
276	278	141	0
-276	-278	141	0
-276	278	-141	0
276	-278	-141	0
-298	-300	-304	0
-297	-306	-307	0
280	282	144	0
147	163	160	0
-165	-295	-296	0
-1135	-694	-879	-877	0
1135	694	-879	-877	0
-1135	-694	-881	-877	0
1135	694	-881	-877	0
1135	-694	878	877	0
-1135	694	878	877	0
-1135	-694	-879	-878	0
1135	694	-879	-878	0
-1135	-694	-881	-878	0
1135	694	-881	-878	0
1135	-694	881	879	0
-1135	694	881	879	0
-450	-453	-110	-454	0
-445	-446	-28	-447	0
-442	-443	-79	-444	0
-449	-451	-109	-452	0
-1060	-1067	-1070	-777	0
-1060	-1057	-1070	-777	0
-1060	-1067	-1064	-777	0
-1060	-1057	-1064	-777	0
-1062	-1067	-1070	-779	0
-1062	-1057	-1070	-779	0
-1062	-1067	-1064	-779	0
-1062	-1057	-1064	-779	0
894	1143	1146	1060	0
894	1151	1146	1060	0
894	1143	1148	1060	0
894	1151	1148	1060	0
896	1143	1146	1062	0
896	1151	1146	1062	0
896	1143	1148	1062	0
896	1151	1148	1062	0
-666	-676	-205	-673	0
-673	-674	-61	-675	0
-207	-66	-206	-205	0
-209	-93	-208	-205	0
-676	-677	-37	-678	0
-557	-455	-569	-566	0
-566	-567	-105	-568	0
-569	-570	-11	-571	0
-457	-74	-456	-455	0
-459	-82	-458	-455	0
-273	-308	-309	-174	0
-174	-176	-18	-178	0
-311	-86	-310	-309	0
-313	-52	-312	-309	0
-308	-314	-35	-315	0
-782	-1137	-784	-776	0
-782	-780	-784	-776	0
-782	-1137	-1026	-776	0
-782	-780	-1026	-776	0
-330	-195	-331	-327	0
-327	-328	-107	-329	0
-331	-464	-81	-465	0
-197	-16	-196	-195	0
-199	-14	-198	-195	0
-319	-316	-185	-182	0
-182	-183	-65	-184	0
-186	-99	-187	-185	0
-190	-13	-188	-185	0
-316	-317	-73	-318	0
-340	-210	-335	-332	0
-332	-333	-89	-334	0
-337	-38	-336	-335	0
-210	-213	-100	-215	0
-868	-870	-871	-813	0
-868	-867	-871	-813	0
-868	-870	-869	-813	0
-868	-867	-869	-813	0
990	986	988	868	0
990	993	988	868	0
990	986	991	868	0
990	993	991	868	0
-439	-577	-218	-580	0
-580	-581	-2	-582	0
-220	-21	-219	-218	0
-223	-94	-221	-218	0
-577	-578	-32	-579	0
-170	-171	-172	-173	0
-173	-177	-56	-179	0
-192	-7	-191	-172	0
-194	-60	-193	-172	0
-171	-181	-5	-189	0
-487	-484	-353	-481	0
-481	-482	-53	-483	0
-355	-15	-354	-353	0
-357	-45	-356	-353	0
-484	-485	-25	-486	0
-350	-347	-235	-341	0
-341	-342	-22	-343	0
-237	-10	-236	-235	0
-239	-57	-238	-235	0
-347	-348	-103	-349	0
-491	-361	-358	-488	0
-488	-489	-39	-490	0
-358	-359	-26	-360	0
-363	-63	-362	-361	0
-365	-20	-364	-361	0
910	911	816	901	0
-351	-352	-224	-344	0
-344	-345	-62	-346	0
-226	-12	-225	-224	0
-228	-51	-227	-224	0
-352	-474	-43	-475	0
-495	-492	-240	-366	0
-366	-367	-19	-368	0
-242	-97	-241	-240	0
-244	-69	-243	-240	0
-492	-493	-83	-494	0
-473	-470	-211	-467	0
-467	-468	-104	-469	0
-216	-27	-214	-211	0
-222	-6	-217	-211	0
-470	-471	-44	-472	0
-476	-229	-477	-478	0
-478	-479	-76	-480	0
-477	-591	-78	-592	0
-231	-84	-232	-229	0
-234	-72	-233	-229	0
-326	-323	-200	-320	0
-320	-321	-8	-322	0
-202	-96	-201	-200	0
-204	-88	-203	-200	0
-323	-324	-30	-325	0
-636	-648	-650	-651	0
-274	-426	-428	-430	0
-531	-533	-528	-534	0
733	831	735	731	0
-732	-970	-971	-972	0
736	753	755	756	0
-1025	-1024	-1021	-752	0
-1025	-1127	-1123	-1120	0
-737	-738	-739	-740	0
-521	-248	-718	-720	0
-265	-398	-408	-399	0
-262	-425	-422	-429	0
-267	-400	-420	-401	0
122	393	395	396	0
121	382	380	384	0
136	413	415	416	0
134	403	402	404	0
247	381	1133	383	0
-252	-388	-432	-390	0
132	135	133	137	0
515	517	658	518	0
511	513	529	514	0
609	613	610	729	0
611	646	679	647	0
503	512	754	504	0
-496	-821	-500	-498	0
1099	1102	1094	922	0
1099	1103	1094	922	0
1099	1102	1104	922	0
1099	1103	1104	922	0
1099	1107	1114	1101	0
-614	-369	-615	-616	0
-151	-284	-294	-287	0
-145	-407	-409	-410	0
146	418	417	419	0
288	391	394	392	0
-159	-435	-437	-438	0
143	411	414	412	0
-142	-387	-405	-389	0
-169	-440	-540	-441	0
-166	-431	-433	-434	0
-148	-147	-282	-144	0
-148	-147	-280	-144	0
-148	-286	-277	-279	0
1200	881	879	878	877	0
788	681	791	792	795	0
790	681	791	794	795	0
-448	-449	-442	-445	-450	0
809	810	812	813	814	0
-812	-909	-910	-815	-905	0
522	737	752	733	637	0
-947	-949	-951	-952	-933	0
-740	-824	-742	-743	-744	0
-739	-950	-943	-830	-948	0
-738	-834	-839	-836	-833	0
260	261	253	132	123	0
123	250	125	127	129	0
253	255	257	254	259	0
152	614	817	609	818	0
817	923	922	496	924	0
-616	-913	-912	-501	-915	0
-615	-822	-506	-820	-726	0
-369	-499	-377	-372	-375	0
160	167	161	162	158	0
163	168	303	165	301	0
